sat
((rprim_1_1 11))
((rprim_1_2 14))
((rprim_1_3 21))
((rprim_1_4 16))
((rprim_1_5 1))
((rprim_1_6 18))
((rprim_1_7 17))
((rprim_1_8 18))
((rprim_1_9 20))
((rprim_1_10 1))
((rprim_1_11 15))
((rprim_1_12 16))
((rprim_1_13 20))
((rprim_1_14 5))
((rprim_1_15 14))
((rprim_1_16 1))
((rprim_1_17 8))
((rprim_1_18 19))
((rprim_1_19 2))
((rprim_1_20 21))
((rprim_1_21 1))
((rprim_1_22 18))
((rprim_1_23 1))
((rprim_1_24 19))
((rprim_1_25 7))
((rprim_1_26 1))
((rprim_1_27 21))
((rprim_1_28 21))
((rprim_1_29 19))
((rprim_1_30 1))
((rprim_1_31 1))
((rprim_1_32 12))
((rprim_1_33 1))
((rprim_1_34 1))
((rcost_1_1 3.0))
((rcost_1_2 4.0))
((rcost_1_3 4.0))
((rcost_1_4 4.0))
((rcost_1_5 0.0))
((rcost_1_6 4.0))
((rcost_1_7 4.0))
((rcost_1_8 4.0))
((rcost_1_9 4.0))
((rcost_1_10 0.0))
((rcost_1_11 4.0))
((rcost_1_12 4.0))
((rcost_1_13 4.0))
((rcost_1_14 2.0))
((rcost_1_15 4.0))
((rcost_1_16 0.0))
((rcost_1_17 3.0))
((rcost_1_18 4.0))
((rcost_1_19 2.0))
((rcost_1_20 4.0))
((rcost_1_21 0.0))
((rcost_1_22 4.0))
((rcost_1_23 0.0))
((rcost_1_24 4.0))
((rcost_1_25 3.0))
((rcost_1_26 0.0))
((rcost_1_27 4.0))
((rcost_1_28 4.0))
((rcost_1_29 4.0))
((rcost_1_30 0.0))
((rcost_1_31 0.0))
((rcost_1_32 3.0))
((rcost_1_33 0.0))
((rcost_1_34 0.0))
((rx_1_1 8))
((ry_1_1 3))
((rx_1_2 8))
((ry_1_2 5))
((rx_1_3 10))
((ry_1_3 7))
((rx_1_4 10))
((ry_1_4 4))
((rx_1_5 8))
((ry_1_5 2))
((rx_1_6 8))
((ry_1_6 2))
((rx_1_7 11))
((ry_1_7 2))
((rx_1_8 13))
((ry_1_8 0))
((rx_1_9 16))
((ry_1_9 0))
((rx_1_10 13))
((ry_1_10 0))
((rx_1_11 13))
((ry_1_11 0))
((rx_1_12 11))
((ry_1_12 2))
((rx_1_13 9))
((ry_1_13 0))
((rx_1_14 6))
((ry_1_14 0))
((rx_1_15 6))
((ry_1_15 1))
((rx_1_16 8))
((ry_1_16 3))
((rx_1_17 8))
((ry_1_17 3))
((rx_1_18 7))
((ry_1_18 2))
((rx_1_19 7))
((ry_1_19 5))
((rx_1_20 8))
((ry_1_20 5))
((rx_1_21 8))
((ry_1_21 2))
((rx_1_22 8))
((ry_1_22 2))
((rx_1_23 11))
((ry_1_23 2))
((rx_1_24 11))
((ry_1_24 2))
((rx_1_25 11))
((ry_1_25 5))
((rx_1_26 10))
((ry_1_26 6))
((rx_1_27 10))
((ry_1_27 6))
((rx_1_28 10))
((ry_1_28 3))
((rx_1_29 10))
((ry_1_29 0))
((rx_1_30 10))
((ry_1_30 3))
((rx_1_31 10))
((ry_1_31 3))
((rx_1_32 10))
((ry_1_32 3))
((rx_1_33 8))
((ry_1_33 3))
((rx_1_34 8))
((ry_1_34 3))
((rx_1_35 8))
((ry_1_35 3))
((rechassigned_1_1 0))
((rechassigned_1_2 0))
((rechassigned_1_3 0))
((rechassigned_1_4 0))
((rechassigned_1_5 1))
((rechassigned_1_6 0))
((rechassigned_1_7 0))
((rechassigned_1_8 0))
((rechassigned_1_9 0))
((rechassigned_1_10 0))
((rechassigned_1_11 0))
((rechassigned_1_12 0))
((rechassigned_1_13 0))
((rechassigned_1_14 0))
((rechassigned_1_15 0))
((rechassigned_1_16 1))
((rechassigned_1_17 0))
((rechassigned_1_18 0))
((rechassigned_1_19 0))
((rechassigned_1_20 0))
((rechassigned_1_21 1))
((rechassigned_1_22 0))
((rechassigned_1_23 0))
((rechassigned_1_24 0))
((rechassigned_1_25 0))
((rechassigned_1_26 0))
((rechassigned_1_27 0))
((rechassigned_1_28 0))
((rechassigned_1_29 0))
((rechassigned_1_30 2))
((rechassigned_1_31 2))
((rechassigned_1_32 2))
((rechassigned_1_33 1))
((rechassigned_1_34 1))
((rechassigned_1_35 0))
((rechassigned_2_1 0))
((rechassigned_2_2 0))
((rechassigned_2_3 0))
((rechassigned_2_4 0))
((rechassigned_2_5 0))
((rechassigned_2_6 0))
((rechassigned_2_7 0))
((rechassigned_2_8 0))
((rechassigned_2_9 0))
((rechassigned_2_10 1))
((rechassigned_2_11 0))
((rechassigned_2_12 0))
((rechassigned_2_13 0))
((rechassigned_2_14 0))
((rechassigned_2_15 0))
((rechassigned_2_16 0))
((rechassigned_2_17 0))
((rechassigned_2_18 0))
((rechassigned_2_19 0))
((rechassigned_2_20 0))
((rechassigned_2_21 0))
((rechassigned_2_22 0))
((rechassigned_2_23 1))
((rechassigned_2_24 0))
((rechassigned_2_25 0))
((rechassigned_2_26 0))
((rechassigned_2_27 0))
((rechassigned_2_28 0))
((rechassigned_2_29 0))
((rechassigned_2_30 1))
((rechassigned_2_31 1))
((rechassigned_2_32 2))
((rechassigned_2_33 2))
((rechassigned_2_34 2))
((rechassigned_2_35 0))
((total_rcost 0))
((lastrech_1_30 false))
((lastrech_1_31 false))
((lastrech_1_32 false))
((lastrech_1_33 true))
((lastrech_2_30 true))
((lastrech_2_31 false))
((lastrech_2_32 false))
((lastrech_2_33 false))
